n = 15;
m = 53;

max_len = 6;
word_lens = [ 4, 4, 4, 4, 4, 4, 4, 4, 4, 4, 4, 4, 4, 4, 4, 4, 5, 5, 5, 5, 5, 5, 5, 5, 5, 5, 5, 5, 5, 5, 5, 5, 5, 5, 5, 5, 5, 5, 5, 5, 5, 6, 6, 6, 6, 6, 6, 6, 6, 6, 6, 6, 6 ];
pivot_inds = [ 1, 1, 0, 2, 0, 3, 3, 1, 1, 1, 1, 3, 0, 2, 3, 1, 0, 0, 1, 2, 3, 3, 1, 2, 1, 2, 4, 1, 2, 4, 0, 2, 2, 1, 4, 1, 1, 2, 1, 2, 2, 3, 0, 2, 4, 1, 5, 1, 2, 4, 2, 2, 2 ];
words = [| M, I, S, T, Z, Z | G, L, U, M, Z, Z | E, V, I, L, Z, Z | D, A, R, K, Z, Z | R, A, I, N, Z, Z | H, A, Z, Y, Z, Z | B, L, U, E, Z, Z | D, R, A, B, Z, Z | G, R, E, Y, Z, Z | G, R, I, M, Z, Z | D, R, O, P, Z, Z | D, O, U, R, Z, Z | D, U, L, L, Z, Z | M, O, O, N, Z, Z | S, O, U, R, Z, Z | G, R, A, Y, Z, Z | D, U, S, K, Y, Z | D, I, N, G, Y, Z | F, O, G, G, Y, Z | M, U, D, D, Y, Z | W, I, N, D, Y, Z | S, H, A, D, E, Z | M, U, G, G, Y, Z | M, U, R, K, Y, Z | N, I, G, H, T, Z | S, O, R, R, Y, Z | W, A, T, E, R, Z | B, L, A, C, K, Z | U, N, L, I, T, Z | H, U, M, I, D, Z | L, A, T, I, N, Z | C, L, O, U, D, Z | M, O, O, D, Y, Z | S, U, N, N, Y, Z | C, O, L, O, R, Z | B, R, O, W, N, Z | D, R, E, A, R, Z | E, A, R, T, H, Z | H, E, A, V, Y, Z | B, A, L, M, Y, Z | S, C, E, N, E, Z | L, E, A, D, E, N | D, I, S, M, A, L | C, I, R, R, U, S | S, O, M, B, R, E | B, R, E, E, Z, Y | C, O, L, D, E, R | B, R, U, N, E, T | G, L, O, O, M, Y | S, U, L, L, E, N | P, E, R, I, O, D | T, U, R, B, I, D | M, O, R, O, S, E |];

pos_var_strat = first_fail;
pos_val_strat = indomain_median;
